
Gurobi 10.0.2 (linux64) logging started Fri Jan 26 13:06:03 2024

Set parameter LogFile to value "../results/logs/log_facebook_combined_17_250_2024_01_26_13_06.log"
Set parameter LazyConstraints to value 1
Gurobi Optimizer version 10.0.2 build v10.0.2rc0 (linux64)

CPU model: Intel(R) Core(TM) i7-4930K CPU @ 3.40GHz, instruction set [SSE2|AVX]
Thread count: 6 physical cores, 12 logical processors, using up to 12 threads

Optimize a model with 1003 rows, 8078 columns and 27347 nonzeros
Model fingerprint: 0x8f05abfd
Variable types: 0 continuous, 8078 integer (8078 binary)
Coefficient statistics:
  Matrix range     [1e+00, 2e+01]
  Objective range  [1e+00, 1e+00]
  Bounds range     [1e+00, 1e+00]
  RHS range        [1e+00, 2e+02]
Found heuristic solution: objective 2061.0000000
Presolve removed 0 rows and 5599 columns
Presolve time: 0.02s
Presolved: 1003 rows, 2479 columns, 18747 nonzeros
Variable types: 0 continuous, 2479 integer (2479 binary)
Found heuristic solution: objective 2089.0000000

Root relaxation: objective 2.547778e+03, 891 iterations, 0.01 seconds (0.02 work units)

    Nodes    |    Current Node    |     Objective Bounds      |     Work
 Expl Unexpl |  Obj  Depth IntInf | Incumbent    BestBd   Gap | It/Node Time

     0     0 2547.77825    0  109 2089.00000 2547.77825  22.0%     -    0s
H    0     0                    2460.0000000 2547.77825  3.57%     -    0s
H    0     0                    2487.0000000 2547.77825  2.44%     -    0s
H    0     0                    2488.0000000 2547.77825  2.40%     -    0s
     0     0 2541.32957    0  178 2488.00000 2541.32957  2.14%     -    0s
H    0     0                    2495.0000000 2541.32957  1.86%     -    0s
H    0     0                    2520.0000000 2541.32957  0.85%     -    0s
     0     0 2541.03173    0  175 2520.00000 2541.03173  0.83%     -    0s
     0     0 2541.02537    0  178 2520.00000 2541.02537  0.83%     -    1s
     0     0 2537.40206    0  189 2520.00000 2537.40206  0.69%     -    1s
     0     0 2536.98602    0  150 2520.00000 2536.98602  0.67%     -    1s
     0     0 2536.97432    0  146 2520.00000 2536.97432  0.67%     -    2s
     0     0 2536.97432    0  147 2520.00000 2536.97432  0.67%     -    2s
     0     0 2535.79991    0  130 2520.00000 2535.79991  0.63%     -    2s
H    0     0                    2524.0000000 2535.79991  0.47%     -    2s
H    0     0                    2530.0000000 2535.79991  0.23%     -    2s
     0     0 2535.26892    0   91 2530.00000 2535.26892  0.21%     -    3s
     0     0 2535.11283    0   58 2530.00000 2535.11283  0.20%     -    3s
     0     0 2535.09665    0   77 2530.00000 2535.09665  0.20%     -    3s
     0     0 2535.09509    0   72 2530.00000 2535.09509  0.20%     -    4s
     0     0 2535.05040    0   87 2530.00000 2535.05040  0.20%     -    4s
H    0     0                    2532.0000000 2535.05040  0.12%     -    4s
     0     0 2534.97053    0   90 2532.00000 2534.97053  0.12%     -    4s
     0     0 2534.94566    0   62 2532.00000 2534.94566  0.12%     -    5s
     0     0 2534.93346    0   74 2532.00000 2534.93346  0.12%     -    5s
     0     0 2534.79640    0  108 2532.00000 2534.79640  0.11%     -    5s
H    0     0                    2533.0000000 2534.79640  0.07%     -    5s
     0     0 2534.75846    0   92 2533.00000 2534.75846  0.07%     -    6s
     0     0 2534.75347    0   93 2533.00000 2534.75347  0.07%     -    6s
     0     0 2534.61751    0   68 2533.00000 2534.61751  0.06%     -    6s
     0     0 2534.61751    0   68 2533.00000 2534.61751  0.06%     -    7s
     0     0 2534.61751    0   58 2533.00000 2534.61751  0.06%     -    7s
     0     0 2534.61751    0   45 2533.00000 2534.61751  0.06%     -    7s
     0     0 2534.57201    0   31 2533.00000 2534.57201  0.06%     -    8s
     0     0 2534.44853    0   45 2533.00000 2534.44853  0.06%     -    8s
     0     0 2534.39811    0   46 2533.00000 2534.39811  0.06%     -    8s
     0     0 2534.38943    0   35 2533.00000 2534.38943  0.05%     -    9s
     0     0 2534.37265    0   26 2533.00000 2534.37265  0.05%     -    9s
     0     0 2534.37088    0   30 2533.00000 2534.37088  0.05%     -    9s
     0     0 2534.29416    0   41 2533.00000 2534.29416  0.05%     -    9s
     0     0 2534.23851    0   39 2533.00000 2534.23851  0.05%     -   10s
     0     0 2534.23851    0   42 2533.00000 2534.23851  0.05%     -   10s
     0     0 2534.18129    0   29 2533.00000 2534.18129  0.05%     -   10s
     0     0 2534.18129    0   35 2533.00000 2534.18129  0.05%     -   11s
     0     0 2534.18129    0   36 2533.00000 2534.18129  0.05%     -   11s
     0     0 2534.18129    0   30 2533.00000 2534.18129  0.05%     -   11s
     0     0 2534.18129    0   28 2533.00000 2534.18129  0.05%     -   11s
     0     0 2534.18129    0   10 2533.00000 2534.18129  0.05%     -   12s
     0     0 2534.18129    0   10 2533.00000 2534.18129  0.05%     -   12s
     0     0 2534.18129    0    9 2533.00000 2534.18129  0.05%     -   12s
     0     0 2534.09510    0   24 2533.00000 2534.09510  0.04%     -   12s
     0     0 2534.09510    0   25 2533.00000 2534.09510  0.04%     -   12s
     0     0 2534.08419    0   25 2533.00000 2534.08419  0.04%     -   13s
     0     0 2534.08419    0   10 2533.00000 2534.08419  0.04%     -   13s
     0     0 2534.08419    0    8 2533.00000 2534.08419  0.04%     -   13s
     0     0 2534.08419    0    7 2533.00000 2534.08419  0.04%     -   13s
     0     0 2534.08419    0    6 2533.00000 2534.08419  0.04%     -   13s
     0     0     cutoff    0      2533.00000 2533.00000  0.00%     -   14s

Cutting planes:
  Gomory: 9
  Lift-and-project: 3
  Cover: 2
  MIR: 10
  GUB cover: 6
  RLT: 3
  Lazy constraints: 1

Explored 1 nodes (4860 simplex iterations) in 14.12 seconds (0.82 work units)
Thread count was 12 (of 12 available processors)

Solution count 10: 2533 2532 2530 ... 2089

Optimal solution found (tolerance 0.00e+00)
Best objective 2.533000000000e+03, best bound 2.533000000000e+03, gap 0.0000%

User-callback calls 647, time in user-callback 13.30 sec

Gurobi 10.0.2 (linux64) logging started Fri Jan 26 13:06:26 2024

Set parameter LogFile to value "../results/logs/log_facebook_combined_17_250_2024_01_26_13_06.log"
Set parameter LazyConstraints to value 1
Gurobi Optimizer version 10.0.2 build v10.0.2rc0 (linux64)

CPU model: Intel(R) Core(TM) i7-4930K CPU @ 3.40GHz, instruction set [SSE2|AVX]
Thread count: 6 physical cores, 12 logical processors, using up to 12 threads

Optimize a model with 1003 rows, 8078 columns and 27347 nonzeros
Model fingerprint: 0x8f05abfd
Variable types: 0 continuous, 8078 integer (8078 binary)
Coefficient statistics:
  Matrix range     [1e+00, 2e+01]
  Objective range  [1e+00, 1e+00]
  Bounds range     [1e+00, 1e+00]
  RHS range        [1e+00, 2e+02]
Found heuristic solution: objective 2061.0000000
Presolve removed 0 rows and 5599 columns
Presolve time: 0.02s
Presolved: 1003 rows, 2479 columns, 18747 nonzeros
Variable types: 0 continuous, 2479 integer (2479 binary)
Found heuristic solution: objective 2089.0000000

Root relaxation: objective 2.547778e+03, 891 iterations, 0.01 seconds (0.02 work units)

    Nodes    |    Current Node    |     Objective Bounds      |     Work
 Expl Unexpl |  Obj  Depth IntInf | Incumbent    BestBd   Gap | It/Node Time

     0     0 2547.77825    0  109 2089.00000 2547.77825  22.0%     -    0s
H    0     0                    2460.0000000 2547.77825  3.57%     -    0s
H    0     0                    2487.0000000 2547.77825  2.44%     -    0s
H    0     0                    2488.0000000 2547.77825  2.40%     -    0s
     0     0 2541.32957    0  178 2488.00000 2541.32957  2.14%     -    0s
H    0     0                    2495.0000000 2541.32957  1.86%     -    0s
H    0     0                    2520.0000000 2541.32957  0.85%     -    0s
     0     0 2541.03173    0  175 2520.00000 2541.03173  0.83%     -    0s
     0     0 2541.02537    0  178 2520.00000 2541.02537  0.83%     -    1s
     0     0 2537.40206    0  189 2520.00000 2537.40206  0.69%     -    1s
     0     0 2536.98602    0  150 2520.00000 2536.98602  0.67%     -    1s
     0     0 2536.97432    0  146 2520.00000 2536.97432  0.67%     -    2s
     0     0 2536.97432    0  147 2520.00000 2536.97432  0.67%     -    2s
     0     0 2535.79991    0  130 2520.00000 2535.79991  0.63%     -    2s
H    0     0                    2524.0000000 2535.79991  0.47%     -    2s
H    0     0                    2530.0000000 2535.79991  0.23%     -    2s
     0     0 2535.26892    0   91 2530.00000 2535.26892  0.21%     -    3s
     0     0 2535.11283    0   58 2530.00000 2535.11283  0.20%     -    3s
     0     0 2535.09665    0   77 2530.00000 2535.09665  0.20%     -    3s
     0     0 2535.09509    0   72 2530.00000 2535.09509  0.20%     -    4s
     0     0 2535.05040    0   87 2530.00000 2535.05040  0.20%     -    4s
H    0     0                    2532.0000000 2535.05040  0.12%     -    4s
     0     0 2534.97053    0   90 2532.00000 2534.97053  0.12%     -    4s
     0     0 2534.94566    0   62 2532.00000 2534.94566  0.12%     -    5s
     0     0 2534.93346    0   74 2532.00000 2534.93346  0.12%     -    5s
     0     0 2534.79640    0  108 2532.00000 2534.79640  0.11%     -    5s
H    0     0                    2533.0000000 2534.79640  0.07%     -    5s
     0     0 2534.75846    0   92 2533.00000 2534.75846  0.07%     -    6s
     0     0 2534.75347    0   93 2533.00000 2534.75347  0.07%     -    6s
     0     0 2534.61751    0   68 2533.00000 2534.61751  0.06%     -    6s
     0     0 2534.61751    0   68 2533.00000 2534.61751  0.06%     -    7s
     0     0 2534.61751    0   58 2533.00000 2534.61751  0.06%     -    7s
     0     0 2534.61751    0   45 2533.00000 2534.61751  0.06%     -    7s
     0     0 2534.57201    0   31 2533.00000 2534.57201  0.06%     -    8s
     0     0 2534.44853    0   45 2533.00000 2534.44853  0.06%     -    8s
     0     0 2534.39811    0   46 2533.00000 2534.39811  0.06%     -    8s
     0     0 2534.38943    0   35 2533.00000 2534.38943  0.05%     -    9s
     0     0 2534.37265    0   26 2533.00000 2534.37265  0.05%     -    9s
     0     0 2534.37088    0   30 2533.00000 2534.37088  0.05%     -    9s
     0     0 2534.29416    0   41 2533.00000 2534.29416  0.05%     -   10s
     0     0 2534.23851    0   39 2533.00000 2534.23851  0.05%     -   10s
     0     0 2534.23851    0   42 2533.00000 2534.23851  0.05%     -   10s
     0     0 2534.18129    0   29 2533.00000 2534.18129  0.05%     -   11s
     0     0 2534.18129    0   35 2533.00000 2534.18129  0.05%     -   11s
     0     0 2534.18129    0   36 2533.00000 2534.18129  0.05%     -   12s
     0     0 2534.18129    0   30 2533.00000 2534.18129  0.05%     -   12s
     0     0 2534.18129    0   28 2533.00000 2534.18129  0.05%     -   12s
     0     0 2534.18129    0   10 2533.00000 2534.18129  0.05%     -   12s
     0     0 2534.18129    0   10 2533.00000 2534.18129  0.05%     -   12s
     0     0 2534.18129    0    9 2533.00000 2534.18129  0.05%     -   12s
     0     0 2534.09510    0   24 2533.00000 2534.09510  0.04%     -   13s
     0     0 2534.09510    0   25 2533.00000 2534.09510  0.04%     -   13s
     0     0 2534.08419    0   25 2533.00000 2534.08419  0.04%     -   13s
     0     0 2534.08419    0   10 2533.00000 2534.08419  0.04%     -   14s
     0     0 2534.08419    0    8 2533.00000 2534.08419  0.04%     -   14s
     0     0 2534.08419    0    7 2533.00000 2534.08419  0.04%     -   14s
     0     0 2534.08419    0    6 2533.00000 2534.08419  0.04%     -   14s
     0     0     cutoff    0      2533.00000 2533.00000  0.00%     -   14s

Cutting planes:
  Gomory: 9
  Lift-and-project: 3
  Cover: 2
  MIR: 10
  GUB cover: 6
  RLT: 3
  Lazy constraints: 1

Explored 1 nodes (4860 simplex iterations) in 14.71 seconds (0.82 work units)
Thread count was 12 (of 12 available processors)

Solution count 10: 2533 2532 2530 ... 2089

Optimal solution found (tolerance 0.00e+00)
Best objective 2.533000000000e+03, best bound 2.533000000000e+03, gap 0.0000%

User-callback calls 646, time in user-callback 13.90 sec
